(set-info :smt-lib-version 2.6)
(set-logic QF_NIA)
(set-info :source |
Generated by: Cristina Borralleras, Daniel Larraz, Albert Oliveras, Enric Rodriguez-Carbonell, Albert Rubio
Generated on: 2017-04-27
Generator: VeryMax
Application: Termination proving
Target solver: barcelogic
|)
(set-info :license "https://creativecommons.org/licenses/by/4.0/")
(set-info :category "industrial")
(set-info :status unsat)
(declare-fun Nl2arg11 () Int)
(declare-fun Nl2arg21 () Int)
(declare-fun Nl2arg31 () Int)
(declare-fun Nl2arg41 () Int)
(declare-fun lam0n0 () Int)
(declare-fun lam0n1 () Int)
(declare-fun lam0n2 () Int)
(declare-fun lam0n3 () Int)
(declare-fun lam0n4 () Int)
(declare-fun lam0n6 () Int)
(declare-fun lam0n5 () Int)
(declare-fun Nl2CT1 () Int)
(declare-fun lam1n0 () Int)
(declare-fun lam1n1 () Int)
(declare-fun lam1n2 () Int)
(declare-fun lam1n3 () Int)
(declare-fun lam1n4 () Int)
(declare-fun lam1n6 () Int)
(declare-fun lam1n5 () Int)
(declare-fun lam2n0 () Int)
(declare-fun lam2n1 () Int)
(declare-fun lam2n2 () Int)
(declare-fun lam2n3 () Int)
(declare-fun lam2n4 () Int)
(declare-fun lam2n6 () Int)
(declare-fun lam2n5 () Int)
(declare-fun lam3n0 () Int)
(declare-fun lam3n1 () Int)
(declare-fun lam3n2 () Int)
(declare-fun lam3n3 () Int)
(declare-fun lam3n4 () Int)
(declare-fun lam3n6 () Int)
(declare-fun lam3n5 () Int)
(declare-fun lam4n0 () Int)
(declare-fun lam4n1 () Int)
(declare-fun lam4n2 () Int)
(declare-fun lam4n3 () Int)
(declare-fun lam4n4 () Int)
(declare-fun lam4n7 () Int)
(declare-fun lam4n5 () Int)
(declare-fun lam4n6 () Int)
(declare-fun lam5n0 () Int)
(declare-fun lam5n1 () Int)
(declare-fun lam5n2 () Int)
(declare-fun lam5n3 () Int)
(declare-fun lam5n4 () Int)
(declare-fun lam5n7 () Int)
(declare-fun lam5n5 () Int)
(declare-fun lam5n6 () Int)
(declare-fun lam6n0 () Int)
(declare-fun lam6n1 () Int)
(declare-fun lam6n2 () Int)
(declare-fun lam6n3 () Int)
(declare-fun lam6n4 () Int)
(declare-fun lam6n7 () Int)
(declare-fun lam6n5 () Int)
(declare-fun lam6n6 () Int)
(declare-fun lam7n0 () Int)
(declare-fun lam7n1 () Int)
(declare-fun lam7n2 () Int)
(declare-fun lam7n3 () Int)
(declare-fun lam7n4 () Int)
(declare-fun lam7n7 () Int)
(declare-fun lam7n5 () Int)
(declare-fun lam7n6 () Int)
(declare-fun lam8n0 () Int)
(declare-fun lam8n1 () Int)
(declare-fun lam8n2 () Int)
(declare-fun lam8n3 () Int)
(declare-fun lam8n4 () Int)
(declare-fun lam8n8 () Int)
(declare-fun lam8n5 () Int)
(declare-fun lam8n6 () Int)
(declare-fun lam8n7 () Int)
(declare-fun lam9n0 () Int)
(declare-fun lam9n1 () Int)
(declare-fun lam9n2 () Int)
(declare-fun lam9n3 () Int)
(declare-fun lam9n4 () Int)
(declare-fun lam9n8 () Int)
(declare-fun lam9n5 () Int)
(declare-fun lam9n6 () Int)
(declare-fun lam9n7 () Int)
(declare-fun lam10n0 () Int)
(declare-fun lam10n4 () Int)
(declare-fun lam10n1 () Int)
(declare-fun lam10n2 () Int)
(declare-fun lam10n3 () Int)
(declare-fun lam11n0 () Int)
(declare-fun lam11n4 () Int)
(declare-fun lam11n1 () Int)
(declare-fun lam11n2 () Int)
(declare-fun lam11n3 () Int)
(declare-fun lam14n0 () Int)
(declare-fun lam14n1 () Int)
(declare-fun lam14n2 () Int)
(declare-fun lam14n3 () Int)
(declare-fun lam14n4 () Int)
(declare-fun lam14n6 () Int)
(declare-fun lam14n5 () Int)
(declare-fun RFN1_CT () Int)
(declare-fun RFN1_arg1 () Int)
(declare-fun RFN1_arg2 () Int)
(declare-fun RFN1_arg3 () Int)
(declare-fun RFN1_arg4 () Int)
(declare-fun lam17n0 () Int)
(declare-fun lam17n1 () Int)
(declare-fun lam17n2 () Int)
(declare-fun lam17n3 () Int)
(declare-fun lam17n4 () Int)
(declare-fun lam17n6 () Int)
(declare-fun lam17n5 () Int)
(declare-fun lam20n0 () Int)
(declare-fun lam20n1 () Int)
(declare-fun lam20n2 () Int)
(declare-fun lam20n3 () Int)
(declare-fun lam20n4 () Int)
(declare-fun lam20n7 () Int)
(declare-fun lam20n5 () Int)
(declare-fun lam20n6 () Int)
(declare-fun lam23n0 () Int)
(declare-fun lam23n1 () Int)
(declare-fun lam23n2 () Int)
(declare-fun lam23n3 () Int)
(declare-fun lam23n4 () Int)
(declare-fun lam23n7 () Int)
(declare-fun lam23n5 () Int)
(declare-fun lam23n6 () Int)
(declare-fun lam26n0 () Int)
(declare-fun lam26n1 () Int)
(declare-fun lam26n2 () Int)
(declare-fun lam26n3 () Int)
(declare-fun lam26n4 () Int)
(declare-fun lam26n8 () Int)
(declare-fun lam26n5 () Int)
(declare-fun lam26n6 () Int)
(declare-fun lam26n7 () Int)
(declare-fun lam29n0 () Int)
(declare-fun lam29n4 () Int)
(declare-fun lam29n1 () Int)
(declare-fun lam29n2 () Int)
(declare-fun lam29n3 () Int)
(declare-fun lam24n0 () Int)
(declare-fun lam24n1 () Int)
(declare-fun lam24n2 () Int)
(declare-fun lam24n3 () Int)
(declare-fun lam24n4 () Int)
(declare-fun lam24n8 () Int)
(declare-fun lam24n5 () Int)
(declare-fun lam24n6 () Int)
(declare-fun lam24n7 () Int)
(declare-fun lam25n0 () Int)
(declare-fun lam25n1 () Int)
(declare-fun lam25n2 () Int)
(declare-fun lam25n3 () Int)
(declare-fun lam25n4 () Int)
(declare-fun lam25n8 () Int)
(declare-fun lam25n5 () Int)
(declare-fun lam25n6 () Int)
(declare-fun lam25n7 () Int)
(declare-fun lam30n0 () Int)
(declare-fun lam30n1 () Int)
(declare-fun lam30n2 () Int)
(declare-fun lam30n3 () Int)
(declare-fun lam30n4 () Int)
(declare-fun lam30n8 () Int)
(declare-fun lam30n5 () Int)
(declare-fun lam30n6 () Int)
(declare-fun lam30n7 () Int)
(assert ( and ( <= ( - 2 ) Nl2arg11 ) ( <= Nl2arg11 2 ) ( <= ( - 2 ) Nl2arg21 ) ( <= Nl2arg21 2 ) ( <= ( - 2 ) Nl2arg31 ) ( <= Nl2arg31 2 ) ( <= ( - 2 ) Nl2arg41 ) ( <= Nl2arg41 2 ) ))
(assert ( or ( and ( >= lam0n0 0 ) ( >= lam0n1 0 ) ( >= lam0n2 0 ) ( >= lam0n3 0 ) ( >= lam0n4 0 ) ( >= lam0n6 0 ) ( > ( + ( * 1 lam0n0 ) ( * ( - 1 ) lam0n1 ) ( * ( - 1 ) lam0n5 ) ( * Nl2CT1 lam0n6 ) ( - 1 ) ) 0 ) ( = ( * Nl2arg11 lam0n6 ) 0 ) ( = ( + ( * 1 lam0n1 ) ( * ( - 1 ) lam0n2 ) ( * ( - 1 ) lam0n3 ) ( * ( - 1 ) lam0n4 ) ( * Nl2arg21 lam0n6 ) ) 0 ) ( = ( + ( * 1 lam0n5 ) ( * Nl2arg31 lam0n6 ) ) 0 ) ( = ( + ( * ( - 1 ) lam0n0 ) ( * Nl2arg41 lam0n6 ) ) 0 ) ( = ( * 1 lam0n2 ) 0 ) ( = ( + ( * ( - 2 ) lam0n1 ) ( * 1 lam0n3 ) ( * 2 lam0n4 ) ) 0 ) ) ( and ( >= lam1n0 0 ) ( >= lam1n1 0 ) ( >= lam1n2 0 ) ( >= lam1n3 0 ) ( >= lam1n4 0 ) ( >= lam1n6 0 ) ( > ( + ( * 1 lam1n0 ) ( * ( - 1 ) lam1n1 ) ( * ( - 1 ) lam1n5 ) ( * Nl2CT1 lam1n6 ) ( - 1 ( + ( + ( + Nl2CT1 ( * Nl2arg11 0 ) ) ( * Nl2arg21 0 ) ) ( * Nl2arg31 0 ) ) ) ) 0 ) ( = ( + ( * Nl2arg11 lam1n6 ) ( - ( + 0 ( * Nl2arg21 2 ) ) ) ) 0 ) ( = ( + ( * 1 lam1n1 ) ( * ( - 1 ) lam1n2 ) ( * ( - 1 ) lam1n3 ) ( * ( - 1 ) lam1n4 ) ( * Nl2arg21 lam1n6 ) ) 0 ) ( = ( + ( * 1 lam1n5 ) ( * Nl2arg31 lam1n6 ) ) 0 ) ( = ( + ( * ( - 1 ) lam1n0 ) ( * Nl2arg41 lam1n6 ) ( - ( + 0 Nl2arg41 ) ) ) 0 ) ( = ( * 1 lam1n2 ) 0 ) ( = ( + ( * ( - 2 ) lam1n1 ) ( * 1 lam1n3 ) ( * 2 lam1n4 ) ( - ( + 0 ( * Nl2arg11 1 ) ) ) ) 0 ) ) ))
(assert ( or ( and ( >= lam2n0 0 ) ( >= lam2n1 0 ) ( >= lam2n2 0 ) ( >= lam2n3 0 ) ( >= lam2n4 0 ) ( >= lam2n6 0 ) ( > ( + ( * 1 lam2n0 ) ( * ( - 1 ) lam2n1 ) ( * Nl2CT1 lam2n6 ) ( - 1 ) ) 0 ) ( = ( + ( * 1 lam2n1 ) ( * ( - 1 ) lam2n2 ) ( * ( - 1 ) lam2n3 ) ( * ( - 1 ) lam2n4 ) ( * Nl2arg11 lam2n6 ) ) 0 ) ( = ( * Nl2arg21 lam2n6 ) 0 ) ( = ( + ( * 1 lam2n5 ) ( * Nl2arg31 lam2n6 ) ) 0 ) ( = ( + ( * ( - 1 ) lam2n0 ) ( * Nl2arg41 lam2n6 ) ) 0 ) ( = ( * 1 lam2n2 ) 0 ) ( = ( + ( * ( - 2 ) lam2n1 ) ( * 1 lam2n3 ) ( * 2 lam2n4 ) ) 0 ) ) ( and ( >= lam3n0 0 ) ( >= lam3n1 0 ) ( >= lam3n2 0 ) ( >= lam3n3 0 ) ( >= lam3n4 0 ) ( >= lam3n6 0 ) ( > ( + ( * 1 lam3n0 ) ( * ( - 1 ) lam3n1 ) ( * Nl2CT1 lam3n6 ) ( - 1 ( + ( + ( + Nl2CT1 ( * Nl2arg11 0 ) ) ( * Nl2arg31 1 ) ) ( * Nl2arg41 0 ) ) ) ) 0 ) ( = ( + ( * 1 lam3n1 ) ( * ( - 1 ) lam3n2 ) ( * ( - 1 ) lam3n3 ) ( * ( - 1 ) lam3n4 ) ( * Nl2arg11 lam3n6 ) ) 0 ) ( = ( + ( * Nl2arg21 lam3n6 ) ( - ( + 0 Nl2arg21 ) ) ) 0 ) ( = ( + ( * 1 lam3n5 ) ( * Nl2arg31 lam3n6 ) ) 0 ) ( = ( + ( * ( - 1 ) lam3n0 ) ( * Nl2arg41 lam3n6 ) ( - ( + 0 ( * Nl2arg11 2 ) ) ) ) 0 ) ( = ( * 1 lam3n2 ) 0 ) ( = ( + ( * ( - 2 ) lam3n1 ) ( * 1 lam3n3 ) ( * 2 lam3n4 ) ( - ( + 0 ( * Nl2arg41 1 ) ) ) ) 0 ) ) ))
(assert ( or ( and ( >= lam4n0 0 ) ( >= lam4n1 0 ) ( >= lam4n2 0 ) ( >= lam4n3 0 ) ( >= lam4n4 0 ) ( >= lam4n7 0 ) ( > ( + ( * 1 lam4n0 ) ( * ( - 1 ) lam4n1 ) ( * ( - 1 ) lam4n5 ) ( * Nl2CT1 lam4n7 ) ( - 1 ) ) 0 ) ( = ( + ( * ( - 1 ) lam4n0 ) ( * Nl2arg11 lam4n7 ) ) 0 ) ( = ( + ( * 1 lam4n1 ) ( * ( - 1 ) lam4n2 ) ( * ( - 1 ) lam4n3 ) ( * ( - 1 ) lam4n4 ) ( * Nl2arg21 lam4n7 ) ) 0 ) ( = ( + ( * 1 lam4n5 ) ( * Nl2arg31 lam4n7 ) ) 0 ) ( = ( + ( * 1 lam4n6 ) ( * Nl2arg41 lam4n7 ) ) 0 ) ( = ( * 1 lam4n2 ) 0 ) ( = ( + ( * ( - 2 ) lam4n1 ) ( * 1 lam4n3 ) ( * 2 lam4n4 ) ) 0 ) ) ( and ( >= lam5n0 0 ) ( >= lam5n1 0 ) ( >= lam5n2 0 ) ( >= lam5n3 0 ) ( >= lam5n4 0 ) ( >= lam5n7 0 ) ( > ( + ( * 1 lam5n0 ) ( * ( - 1 ) lam5n1 ) ( * ( - 1 ) lam5n5 ) ( * Nl2CT1 lam5n7 ) ( - 1 ( + ( + ( + ( + Nl2CT1 ( * Nl2arg11 0 ) ) ( * Nl2arg21 0 ) ) ( * Nl2arg31 0 ) ) ( * Nl2arg41 0 ) ) ) ) 0 ) ( = ( + ( * ( - 1 ) lam5n0 ) ( * Nl2arg11 lam5n7 ) ( - ( + 0 ( * Nl2arg21 2 ) ) ) ) 0 ) ( = ( + ( * 1 lam5n1 ) ( * ( - 1 ) lam5n2 ) ( * ( - 1 ) lam5n3 ) ( * ( - 1 ) lam5n4 ) ( * Nl2arg21 lam5n7 ) ) 0 ) ( = ( + ( * 1 lam5n5 ) ( * Nl2arg31 lam5n7 ) ) 0 ) ( = ( + ( * 1 lam5n6 ) ( * Nl2arg41 lam5n7 ) ) 0 ) ( = ( * 1 lam5n2 ) 0 ) ( = ( + ( * ( - 2 ) lam5n1 ) ( * 1 lam5n3 ) ( * 2 lam5n4 ) ( - ( + 0 ( * Nl2arg11 1 ) ) ) ) 0 ) ) ))
(assert ( or ( and ( >= lam6n0 0 ) ( >= lam6n1 0 ) ( >= lam6n2 0 ) ( >= lam6n3 0 ) ( >= lam6n4 0 ) ( >= lam6n7 0 ) ( > ( + ( * 1 lam6n0 ) ( * 1 lam6n1 ) ( * 1 lam6n2 ) ( * ( - 1 ) lam6n3 ) ( * Nl2CT1 lam6n7 ) ( - 1 ) ) 0 ) ( = ( + ( * ( - 1 ) lam6n0 ) ( * ( - 1 ) lam6n1 ) ( * ( - 1 ) lam6n2 ) ( * 1 lam6n3 ) ( * ( - 1 ) lam6n4 ) ( * Nl2arg11 lam6n7 ) ) 0 ) ( = ( * Nl2arg21 lam6n7 ) 0 ) ( = ( + ( * 1 lam6n5 ) ( * Nl2arg31 lam6n7 ) ) 0 ) ( = ( + ( * 1 lam6n6 ) ( * Nl2arg41 lam6n7 ) ) 0 ) ( = ( * 1 lam6n1 ) 0 ) ( = ( + ( * 1 lam6n2 ) ( * ( - 2 ) lam6n3 ) ( * 2 lam6n4 ) ) 0 ) ) ( and ( >= lam7n0 0 ) ( >= lam7n1 0 ) ( >= lam7n2 0 ) ( >= lam7n3 0 ) ( >= lam7n4 0 ) ( >= lam7n7 0 ) ( > ( + ( * 1 lam7n0 ) ( * 1 lam7n1 ) ( * 1 lam7n2 ) ( * ( - 1 ) lam7n3 ) ( * Nl2CT1 lam7n7 ) ( - 1 ( + ( + ( + Nl2CT1 ( * Nl2arg11 0 ) ) ( * Nl2arg31 1 ) ) ( * Nl2arg41 0 ) ) ) ) 0 ) ( = ( + ( * ( - 1 ) lam7n0 ) ( * ( - 1 ) lam7n1 ) ( * ( - 1 ) lam7n2 ) ( * 1 lam7n3 ) ( * ( - 1 ) lam7n4 ) ( * Nl2arg11 lam7n7 ) ) 0 ) ( = ( + ( * Nl2arg21 lam7n7 ) ( - ( + 0 Nl2arg21 ) ) ) 0 ) ( = ( + ( * 1 lam7n5 ) ( * Nl2arg31 lam7n7 ) ) 0 ) ( = ( + ( * 1 lam7n6 ) ( * Nl2arg41 lam7n7 ) ) 0 ) ( = ( * 1 lam7n1 ) 0 ) ( = ( + ( * 1 lam7n2 ) ( * ( - 2 ) lam7n3 ) ( * 2 lam7n4 ) ( - ( + 0 ( * Nl2arg41 1 ) ) ) ) 0 ) ) ))
(assert ( or ( and ( >= lam8n0 0 ) ( >= lam8n1 0 ) ( >= lam8n2 0 ) ( >= lam8n3 0 ) ( >= lam8n4 0 ) ( >= lam8n8 0 ) ( > ( + ( * 1 lam8n0 ) ( * 1 lam8n1 ) ( * 1 lam8n2 ) ( * ( - 1 ) lam8n3 ) ( * ( - 1 ) lam8n5 ) ( * Nl2CT1 lam8n8 ) ( - 1 ) ) 0 ) ( = ( + ( * 1 lam8n6 ) ( * Nl2arg11 lam8n8 ) ) 0 ) ( = ( + ( * ( - 1 ) lam8n0 ) ( * ( - 1 ) lam8n1 ) ( * ( - 1 ) lam8n2 ) ( * 1 lam8n3 ) ( * ( - 1 ) lam8n4 ) ( * Nl2arg21 lam8n8 ) ) 0 ) ( = ( + ( * 1 lam8n5 ) ( * Nl2arg31 lam8n8 ) ) 0 ) ( = ( + ( * 1 lam8n7 ) ( * Nl2arg41 lam8n8 ) ) 0 ) ( = ( * 1 lam8n1 ) 0 ) ( = ( + ( * 1 lam8n2 ) ( * ( - 2 ) lam8n3 ) ( * 2 lam8n4 ) ) 0 ) ) ( and ( >= lam9n0 0 ) ( >= lam9n1 0 ) ( >= lam9n2 0 ) ( >= lam9n3 0 ) ( >= lam9n4 0 ) ( >= lam9n8 0 ) ( > ( + ( * 1 lam9n0 ) ( * 1 lam9n1 ) ( * 1 lam9n2 ) ( * ( - 1 ) lam9n3 ) ( * ( - 1 ) lam9n5 ) ( * Nl2CT1 lam9n8 ) ( - 1 ( + ( + ( + ( + Nl2CT1 ( * Nl2arg11 0 ) ) ( * Nl2arg21 0 ) ) ( * Nl2arg31 0 ) ) ( * Nl2arg41 0 ) ) ) ) 0 ) ( = ( + ( * 1 lam9n6 ) ( * Nl2arg11 lam9n8 ) ) 0 ) ( = ( + ( * ( - 1 ) lam9n0 ) ( * ( - 1 ) lam9n1 ) ( * ( - 1 ) lam9n2 ) ( * 1 lam9n3 ) ( * ( - 1 ) lam9n4 ) ( * Nl2arg21 lam9n8 ) ) 0 ) ( = ( + ( * 1 lam9n5 ) ( * Nl2arg31 lam9n8 ) ) 0 ) ( = ( + ( * 1 lam9n7 ) ( * Nl2arg41 lam9n8 ) ) 0 ) ( = ( * 1 lam9n1 ) 0 ) ( = ( + ( * 1 lam9n2 ) ( * ( - 2 ) lam9n3 ) ( * 2 lam9n4 ) ( - ( + 0 ( * Nl2arg11 1 ) ) ) ) 0 ) ) ))
(assert ( or ( and ( >= lam10n0 0 ) ( >= lam10n4 0 ) ( > ( + ( * 1 lam10n0 ) ( * Nl2CT1 lam10n4 ) ( - 1 ) ) 0 ) ( = ( + ( * 1 lam10n1 ) ( * Nl2arg11 lam10n4 ) ) 0 ) ( = ( + ( * ( - 1 ) lam10n0 ) ( * Nl2arg21 lam10n4 ) ) 0 ) ( = ( + ( * 1 lam10n2 ) ( * Nl2arg31 lam10n4 ) ) 0 ) ( = ( + ( * 1 lam10n3 ) ( * Nl2arg41 lam10n4 ) ) 0 ) ) ( and ( >= lam11n0 0 ) ( >= lam11n4 0 ) ( > ( + ( * 1 lam11n0 ) ( * Nl2CT1 lam11n4 ) ( - 1 ( + ( + ( + Nl2CT1 ( * Nl2arg11 0 ) ) ( * Nl2arg31 1 ) ) ( * Nl2arg41 0 ) ) ) ) 0 ) ( = ( + ( * 1 lam11n1 ) ( * Nl2arg11 lam11n4 ) ) 0 ) ( = ( + ( * ( - 1 ) lam11n0 ) ( * Nl2arg21 lam11n4 ) ( - ( + 0 Nl2arg21 ) ) ) 0 ) ( = ( + ( * 1 lam11n2 ) ( * Nl2arg31 lam11n4 ) ) 0 ) ( = ( + ( * 1 lam11n3 ) ( * Nl2arg41 lam11n4 ) ) 0 ) ) ))
(assert ( and ( or ( and ( >= lam0n0 0 ) ( >= lam0n1 0 ) ( >= lam0n2 0 ) ( >= lam0n3 0 ) ( >= lam0n4 0 ) ( >= lam0n6 0 ) ( > ( + ( * 1 lam0n0 ) ( * ( - 1 ) lam0n1 ) ( * ( - 1 ) lam0n5 ) ( * Nl2CT1 lam0n6 ) ( - 1 ) ) 0 ) ( = ( * Nl2arg11 lam0n6 ) 0 ) ( = ( + ( * 1 lam0n1 ) ( * ( - 1 ) lam0n2 ) ( * ( - 1 ) lam0n3 ) ( * ( - 1 ) lam0n4 ) ( * Nl2arg21 lam0n6 ) ) 0 ) ( = ( + ( * 1 lam0n5 ) ( * Nl2arg31 lam0n6 ) ) 0 ) ( = ( + ( * ( - 1 ) lam0n0 ) ( * Nl2arg41 lam0n6 ) ) 0 ) ( = ( * 1 lam0n2 ) 0 ) ( = ( + ( * ( - 2 ) lam0n1 ) ( * 1 lam0n3 ) ( * 2 lam0n4 ) ) 0 ) ) ( and ( >= lam14n0 0 ) ( >= lam14n1 0 ) ( >= lam14n2 0 ) ( >= lam14n3 0 ) ( >= lam14n4 0 ) ( >= lam14n6 0 ) ( > ( + ( * 1 lam14n0 ) ( * ( - 1 ) lam14n1 ) ( * ( - 1 ) lam14n5 ) ( * Nl2CT1 lam14n6 ) ( - 1 ( - ( + ( + ( + RFN1_CT ( * RFN1_arg1 0 ) ) ( * RFN1_arg2 0 ) ) ( * RFN1_arg3 0 ) ) RFN1_CT ) ) ) 0 ) ( = ( + ( * Nl2arg11 lam14n6 ) ( - ( - ( + 0 ( * RFN1_arg2 2 ) ) RFN1_arg1 ) ) ) 0 ) ( = ( + ( * 1 lam14n1 ) ( * ( - 1 ) lam14n2 ) ( * ( - 1 ) lam14n3 ) ( * ( - 1 ) lam14n4 ) ( * Nl2arg21 lam14n6 ) ( - ( - RFN1_arg2 ) ) ) 0 ) ( = ( + ( * 1 lam14n5 ) ( * Nl2arg31 lam14n6 ) ( - ( - RFN1_arg3 ) ) ) 0 ) ( = ( + ( * ( - 1 ) lam14n0 ) ( * Nl2arg41 lam14n6 ) ( - ( - ( + 0 RFN1_arg4 ) RFN1_arg4 ) ) ) 0 ) ( = ( * 1 lam14n2 ) 0 ) ( = ( + ( * ( - 2 ) lam14n1 ) ( * 1 lam14n3 ) ( * 2 lam14n4 ) ( - ( + 0 ( * RFN1_arg1 1 ) ) ) ) 0 ) ) ) ( or ( and ( >= lam2n0 0 ) ( >= lam2n1 0 ) ( >= lam2n2 0 ) ( >= lam2n3 0 ) ( >= lam2n4 0 ) ( >= lam2n6 0 ) ( > ( + ( * 1 lam2n0 ) ( * ( - 1 ) lam2n1 ) ( * Nl2CT1 lam2n6 ) ( - 1 ) ) 0 ) ( = ( + ( * 1 lam2n1 ) ( * ( - 1 ) lam2n2 ) ( * ( - 1 ) lam2n3 ) ( * ( - 1 ) lam2n4 ) ( * Nl2arg11 lam2n6 ) ) 0 ) ( = ( * Nl2arg21 lam2n6 ) 0 ) ( = ( + ( * 1 lam2n5 ) ( * Nl2arg31 lam2n6 ) ) 0 ) ( = ( + ( * ( - 1 ) lam2n0 ) ( * Nl2arg41 lam2n6 ) ) 0 ) ( = ( * 1 lam2n2 ) 0 ) ( = ( + ( * ( - 2 ) lam2n1 ) ( * 1 lam2n3 ) ( * 2 lam2n4 ) ) 0 ) ) ( and ( >= lam17n0 0 ) ( >= lam17n1 0 ) ( >= lam17n2 0 ) ( >= lam17n3 0 ) ( >= lam17n4 0 ) ( >= lam17n6 0 ) ( > ( + ( * 1 lam17n0 ) ( * ( - 1 ) lam17n1 ) ( * Nl2CT1 lam17n6 ) ( - 1 ( - ( + ( + ( + RFN1_CT ( * RFN1_arg1 0 ) ) ( * RFN1_arg3 1 ) ) ( * RFN1_arg4 0 ) ) RFN1_CT ) ) ) 0 ) ( = ( + ( * 1 lam17n1 ) ( * ( - 1 ) lam17n2 ) ( * ( - 1 ) lam17n3 ) ( * ( - 1 ) lam17n4 ) ( * Nl2arg11 lam17n6 ) ( - ( - RFN1_arg1 ) ) ) 0 ) ( = ( + ( * Nl2arg21 lam17n6 ) ( - ( - ( + 0 RFN1_arg2 ) RFN1_arg2 ) ) ) 0 ) ( = ( + ( * 1 lam17n5 ) ( * Nl2arg31 lam17n6 ) ( - ( - RFN1_arg3 ) ) ) 0 ) ( = ( + ( * ( - 1 ) lam17n0 ) ( * Nl2arg41 lam17n6 ) ( - ( - ( + 0 ( * RFN1_arg1 2 ) ) RFN1_arg4 ) ) ) 0 ) ( = ( * 1 lam17n2 ) 0 ) ( = ( + ( * ( - 2 ) lam17n1 ) ( * 1 lam17n3 ) ( * 2 lam17n4 ) ( - ( + 0 ( * RFN1_arg4 1 ) ) ) ) 0 ) ) ) ( or ( and ( >= lam4n0 0 ) ( >= lam4n1 0 ) ( >= lam4n2 0 ) ( >= lam4n3 0 ) ( >= lam4n4 0 ) ( >= lam4n7 0 ) ( > ( + ( * 1 lam4n0 ) ( * ( - 1 ) lam4n1 ) ( * ( - 1 ) lam4n5 ) ( * Nl2CT1 lam4n7 ) ( - 1 ) ) 0 ) ( = ( + ( * ( - 1 ) lam4n0 ) ( * Nl2arg11 lam4n7 ) ) 0 ) ( = ( + ( * 1 lam4n1 ) ( * ( - 1 ) lam4n2 ) ( * ( - 1 ) lam4n3 ) ( * ( - 1 ) lam4n4 ) ( * Nl2arg21 lam4n7 ) ) 0 ) ( = ( + ( * 1 lam4n5 ) ( * Nl2arg31 lam4n7 ) ) 0 ) ( = ( + ( * 1 lam4n6 ) ( * Nl2arg41 lam4n7 ) ) 0 ) ( = ( * 1 lam4n2 ) 0 ) ( = ( + ( * ( - 2 ) lam4n1 ) ( * 1 lam4n3 ) ( * 2 lam4n4 ) ) 0 ) ) ( and ( >= lam20n0 0 ) ( >= lam20n1 0 ) ( >= lam20n2 0 ) ( >= lam20n3 0 ) ( >= lam20n4 0 ) ( >= lam20n7 0 ) ( > ( + ( * 1 lam20n0 ) ( * ( - 1 ) lam20n1 ) ( * ( - 1 ) lam20n5 ) ( * Nl2CT1 lam20n7 ) ( - 1 ( - ( + ( + ( + ( + RFN1_CT ( * RFN1_arg1 0 ) ) ( * RFN1_arg2 0 ) ) ( * RFN1_arg3 0 ) ) ( * RFN1_arg4 0 ) ) RFN1_CT ) ) ) 0 ) ( = ( + ( * ( - 1 ) lam20n0 ) ( * Nl2arg11 lam20n7 ) ( - ( - ( + 0 ( * RFN1_arg2 2 ) ) RFN1_arg1 ) ) ) 0 ) ( = ( + ( * 1 lam20n1 ) ( * ( - 1 ) lam20n2 ) ( * ( - 1 ) lam20n3 ) ( * ( - 1 ) lam20n4 ) ( * Nl2arg21 lam20n7 ) ( - ( - RFN1_arg2 ) ) ) 0 ) ( = ( + ( * 1 lam20n5 ) ( * Nl2arg31 lam20n7 ) ( - ( - RFN1_arg3 ) ) ) 0 ) ( = ( + ( * 1 lam20n6 ) ( * Nl2arg41 lam20n7 ) ( - ( - RFN1_arg4 ) ) ) 0 ) ( = ( * 1 lam20n2 ) 0 ) ( = ( + ( * ( - 2 ) lam20n1 ) ( * 1 lam20n3 ) ( * 2 lam20n4 ) ( - ( + 0 ( * RFN1_arg1 1 ) ) ) ) 0 ) ) ) ( or ( and ( >= lam6n0 0 ) ( >= lam6n1 0 ) ( >= lam6n2 0 ) ( >= lam6n3 0 ) ( >= lam6n4 0 ) ( >= lam6n7 0 ) ( > ( + ( * 1 lam6n0 ) ( * 1 lam6n1 ) ( * 1 lam6n2 ) ( * ( - 1 ) lam6n3 ) ( * Nl2CT1 lam6n7 ) ( - 1 ) ) 0 ) ( = ( + ( * ( - 1 ) lam6n0 ) ( * ( - 1 ) lam6n1 ) ( * ( - 1 ) lam6n2 ) ( * 1 lam6n3 ) ( * ( - 1 ) lam6n4 ) ( * Nl2arg11 lam6n7 ) ) 0 ) ( = ( * Nl2arg21 lam6n7 ) 0 ) ( = ( + ( * 1 lam6n5 ) ( * Nl2arg31 lam6n7 ) ) 0 ) ( = ( + ( * 1 lam6n6 ) ( * Nl2arg41 lam6n7 ) ) 0 ) ( = ( * 1 lam6n1 ) 0 ) ( = ( + ( * 1 lam6n2 ) ( * ( - 2 ) lam6n3 ) ( * 2 lam6n4 ) ) 0 ) ) ( and ( >= lam23n0 0 ) ( >= lam23n1 0 ) ( >= lam23n2 0 ) ( >= lam23n3 0 ) ( >= lam23n4 0 ) ( >= lam23n7 0 ) ( > ( + ( * 1 lam23n0 ) ( * 1 lam23n1 ) ( * 1 lam23n2 ) ( * ( - 1 ) lam23n3 ) ( * Nl2CT1 lam23n7 ) ( - 1 ( - ( + ( + ( + RFN1_CT ( * RFN1_arg1 0 ) ) ( * RFN1_arg3 1 ) ) ( * RFN1_arg4 0 ) ) RFN1_CT ) ) ) 0 ) ( = ( + ( * ( - 1 ) lam23n0 ) ( * ( - 1 ) lam23n1 ) ( * ( - 1 ) lam23n2 ) ( * 1 lam23n3 ) ( * ( - 1 ) lam23n4 ) ( * Nl2arg11 lam23n7 ) ( - ( - RFN1_arg1 ) ) ) 0 ) ( = ( + ( * Nl2arg21 lam23n7 ) ( - ( - ( + 0 RFN1_arg2 ) RFN1_arg2 ) ) ) 0 ) ( = ( + ( * 1 lam23n5 ) ( * Nl2arg31 lam23n7 ) ( - ( - RFN1_arg3 ) ) ) 0 ) ( = ( + ( * 1 lam23n6 ) ( * Nl2arg41 lam23n7 ) ( - ( - RFN1_arg4 ) ) ) 0 ) ( = ( * 1 lam23n1 ) 0 ) ( = ( + ( * 1 lam23n2 ) ( * ( - 2 ) lam23n3 ) ( * 2 lam23n4 ) ( - ( + 0 ( * RFN1_arg4 1 ) ) ) ) 0 ) ) ) ( or ( and ( >= lam8n0 0 ) ( >= lam8n1 0 ) ( >= lam8n2 0 ) ( >= lam8n3 0 ) ( >= lam8n4 0 ) ( >= lam8n8 0 ) ( > ( + ( * 1 lam8n0 ) ( * 1 lam8n1 ) ( * 1 lam8n2 ) ( * ( - 1 ) lam8n3 ) ( * ( - 1 ) lam8n5 ) ( * Nl2CT1 lam8n8 ) ( - 1 ) ) 0 ) ( = ( + ( * 1 lam8n6 ) ( * Nl2arg11 lam8n8 ) ) 0 ) ( = ( + ( * ( - 1 ) lam8n0 ) ( * ( - 1 ) lam8n1 ) ( * ( - 1 ) lam8n2 ) ( * 1 lam8n3 ) ( * ( - 1 ) lam8n4 ) ( * Nl2arg21 lam8n8 ) ) 0 ) ( = ( + ( * 1 lam8n5 ) ( * Nl2arg31 lam8n8 ) ) 0 ) ( = ( + ( * 1 lam8n7 ) ( * Nl2arg41 lam8n8 ) ) 0 ) ( = ( * 1 lam8n1 ) 0 ) ( = ( + ( * 1 lam8n2 ) ( * ( - 2 ) lam8n3 ) ( * 2 lam8n4 ) ) 0 ) ) ( and ( >= lam26n0 0 ) ( >= lam26n1 0 ) ( >= lam26n2 0 ) ( >= lam26n3 0 ) ( >= lam26n4 0 ) ( >= lam26n8 0 ) ( > ( + ( * 1 lam26n0 ) ( * 1 lam26n1 ) ( * 1 lam26n2 ) ( * ( - 1 ) lam26n3 ) ( * ( - 1 ) lam26n5 ) ( * Nl2CT1 lam26n8 ) ( - 1 ( - ( + ( + ( + ( + RFN1_CT ( * RFN1_arg1 0 ) ) ( * RFN1_arg2 0 ) ) ( * RFN1_arg3 0 ) ) ( * RFN1_arg4 0 ) ) RFN1_CT ) ) ) 0 ) ( = ( + ( * 1 lam26n6 ) ( * Nl2arg11 lam26n8 ) ( - ( - RFN1_arg1 ) ) ) 0 ) ( = ( + ( * ( - 1 ) lam26n0 ) ( * ( - 1 ) lam26n1 ) ( * ( - 1 ) lam26n2 ) ( * 1 lam26n3 ) ( * ( - 1 ) lam26n4 ) ( * Nl2arg21 lam26n8 ) ( - ( - RFN1_arg2 ) ) ) 0 ) ( = ( + ( * 1 lam26n5 ) ( * Nl2arg31 lam26n8 ) ( - ( - RFN1_arg3 ) ) ) 0 ) ( = ( + ( * 1 lam26n7 ) ( * Nl2arg41 lam26n8 ) ( - ( - RFN1_arg4 ) ) ) 0 ) ( = ( * 1 lam26n1 ) 0 ) ( = ( + ( * 1 lam26n2 ) ( * ( - 2 ) lam26n3 ) ( * 2 lam26n4 ) ( - ( + 0 ( * RFN1_arg1 1 ) ) ) ) 0 ) ) ) ( or ( and ( >= lam10n0 0 ) ( >= lam10n4 0 ) ( > ( + ( * 1 lam10n0 ) ( * Nl2CT1 lam10n4 ) ( - 1 ) ) 0 ) ( = ( + ( * 1 lam10n1 ) ( * Nl2arg11 lam10n4 ) ) 0 ) ( = ( + ( * ( - 1 ) lam10n0 ) ( * Nl2arg21 lam10n4 ) ) 0 ) ( = ( + ( * 1 lam10n2 ) ( * Nl2arg31 lam10n4 ) ) 0 ) ( = ( + ( * 1 lam10n3 ) ( * Nl2arg41 lam10n4 ) ) 0 ) ) ( and ( >= lam29n0 0 ) ( >= lam29n4 0 ) ( > ( + ( * 1 lam29n0 ) ( * Nl2CT1 lam29n4 ) ( - 1 ( - ( + ( + ( + RFN1_CT ( * RFN1_arg1 0 ) ) ( * RFN1_arg3 1 ) ) ( * RFN1_arg4 0 ) ) RFN1_CT ) ) ) 0 ) ( = ( + ( * 1 lam29n1 ) ( * Nl2arg11 lam29n4 ) ( - ( - RFN1_arg1 ) ) ) 0 ) ( = ( + ( * ( - 1 ) lam29n0 ) ( * Nl2arg21 lam29n4 ) ( - ( - ( + 0 RFN1_arg2 ) RFN1_arg2 ) ) ) 0 ) ( = ( + ( * 1 lam29n2 ) ( * Nl2arg31 lam29n4 ) ( - ( - RFN1_arg3 ) ) ) 0 ) ( = ( + ( * 1 lam29n3 ) ( * Nl2arg41 lam29n4 ) ( - ( - RFN1_arg4 ) ) ) 0 ) ) ) ))
(assert ( and ( and ( and ( >= lam24n0 0 ) ( >= lam24n1 0 ) ( >= lam24n2 0 ) ( >= lam24n3 0 ) ( >= lam24n4 0 ) ( >= lam24n8 0 ) ( > ( + ( * 1 lam24n0 ) ( * 1 lam24n1 ) ( * 1 lam24n2 ) ( * ( - 1 ) lam24n3 ) ( * ( - 1 ) lam24n5 ) ( * Nl2CT1 lam24n8 ) ( - 1 ( - RFN1_CT ) ) ) 0 ) ( = ( + ( * 1 lam24n6 ) ( * Nl2arg11 lam24n8 ) ( - ( - RFN1_arg1 ) ) ) 0 ) ( = ( + ( * ( - 1 ) lam24n0 ) ( * ( - 1 ) lam24n1 ) ( * ( - 1 ) lam24n2 ) ( * 1 lam24n3 ) ( * ( - 1 ) lam24n4 ) ( * Nl2arg21 lam24n8 ) ( - ( - RFN1_arg2 ) ) ) 0 ) ( = ( + ( * 1 lam24n5 ) ( * Nl2arg31 lam24n8 ) ( - ( - RFN1_arg3 ) ) ) 0 ) ( = ( + ( * 1 lam24n7 ) ( * Nl2arg41 lam24n8 ) ( - ( - RFN1_arg4 ) ) ) 0 ) ( = ( * 1 lam24n1 ) 0 ) ( = ( + ( * 1 lam24n2 ) ( * ( - 2 ) lam24n3 ) ( * 2 lam24n4 ) ) 0 ) ) ( and ( >= lam25n0 0 ) ( >= lam25n1 0 ) ( >= lam25n2 0 ) ( >= lam25n3 0 ) ( >= lam25n4 0 ) ( >= lam25n8 0 ) ( > ( + ( * 1 lam25n0 ) ( * 1 lam25n1 ) ( * 1 lam25n2 ) ( * ( - 1 ) lam25n3 ) ( * ( - 1 ) lam25n5 ) ( * Nl2CT1 lam25n8 ) ( - 1 ( + ( - ( + ( + ( + ( + RFN1_CT ( * RFN1_arg1 0 ) ) ( * RFN1_arg2 0 ) ) ( * RFN1_arg3 0 ) ) ( * RFN1_arg4 0 ) ) RFN1_CT ) 1 ) ) ) 0 ) ( = ( + ( * 1 lam25n6 ) ( * Nl2arg11 lam25n8 ) ( - ( - RFN1_arg1 ) ) ) 0 ) ( = ( + ( * ( - 1 ) lam25n0 ) ( * ( - 1 ) lam25n1 ) ( * ( - 1 ) lam25n2 ) ( * 1 lam25n3 ) ( * ( - 1 ) lam25n4 ) ( * Nl2arg21 lam25n8 ) ( - ( - RFN1_arg2 ) ) ) 0 ) ( = ( + ( * 1 lam25n5 ) ( * Nl2arg31 lam25n8 ) ( - ( - RFN1_arg3 ) ) ) 0 ) ( = ( + ( * 1 lam25n7 ) ( * Nl2arg41 lam25n8 ) ( - ( - RFN1_arg4 ) ) ) 0 ) ( = ( * 1 lam25n1 ) 0 ) ( = ( + ( * 1 lam25n2 ) ( * ( - 2 ) lam25n3 ) ( * 2 lam25n4 ) ( - ( + 0 ( * RFN1_arg1 1 ) ) ) ) 0 ) ) ) ( and ( >= lam30n0 0 ) ( >= lam30n1 0 ) ( >= lam30n2 0 ) ( >= lam30n3 0 ) ( >= lam30n4 0 ) ( >= lam30n8 0 ) ( > ( + ( * 1 lam30n0 ) ( * 1 lam30n1 ) ( * 1 lam30n2 ) ( * ( - 1 ) lam30n3 ) ( * ( - 1 ) lam30n5 ) ( * ( + ( - Nl2CT1 ) 1 ) lam30n8 ) ( - 1 ) ) 0 ) ( = ( + ( * 1 lam30n6 ) ( * ( - Nl2arg11 ) lam30n8 ) ) 0 ) ( = ( + ( * ( - 1 ) lam30n0 ) ( * ( - 1 ) lam30n1 ) ( * ( - 1 ) lam30n2 ) ( * 1 lam30n3 ) ( * ( - 1 ) lam30n4 ) ( * ( - Nl2arg21 ) lam30n8 ) ) 0 ) ( = ( + ( * 1 lam30n5 ) ( * ( - Nl2arg31 ) lam30n8 ) ) 0 ) ( = ( + ( * 1 lam30n7 ) ( * ( - Nl2arg41 ) lam30n8 ) ) 0 ) ( = ( * 1 lam30n1 ) 0 ) ( = ( + ( * 1 lam30n2 ) ( * ( - 2 ) lam30n3 ) ( * 2 lam30n4 ) ) 0 ) ) ))
(check-sat)
(exit)
